NAME : 0Farmland
COMMENT :  50
TYPE : TSP
DIMENSION : 50
EDGE_WEIGHT_TYPE : ATT
NODE_COORD_SECTION
1  0.12 0.23
2  0.45 0.67
3  0.89 0.90
4  0.12 0.34
5  0.56 0.78
6  0.90 0.01
7  0.23 0.45
8  0.67 0.89
9  0.10 0.21
10 0.32 0.43
11 0.54 0.65
12 0.76 0.87
13 0.98 0.09
14 0.20 0.31
15 0.42 0.53
16 0.64 0.75
17 0.86 0.97
18 0.08 0.19
19 0.30 0.41
20 0.52 0.63
21 0.74 0.85
22 0.96 0.07
23 0.18 0.29
24 0.40 0.51
25 0.62 0.73
26 0.84 0.95
27 0.06 0.17
28 0.28 0.39
29 0.50 0.61
30 0.72 0.83
31 0.94 0.05
32 0.16 0.27
33 0.38 0.49
34 0.60 0.71
35 0.82 0.93
36 0.04 0.15
37 0.26 0.37
38 0.48 0.59
39 0.70 0.81
40 0.92 0.03
41 0.14 0.25
42 0.36 0.47
43 0.58 0.69
44 0.80 0.91
45 0.02 0.13
46 0.24 0.35
47 0.46 0.57
48 0.68 0.79
49 0.90 0.01
50 0.11 0.22
EOF
